NAME: ACTUAL_TOURS/amz2838
TYPE: TOUR
COMMENT: RouteID_aa7bff93-4ebc-4c2e-a909-4489dd3e9c1c
DIMENSION: 96
TOUR_SECTION
7
32
65
44
56
47
20
19
21
30
60
39
10
31
69
2
67
93
94
29
50
16
17
25
77
62
72
78
11
87
13
75
6
34
96
43
70
28
61
74
80
5
35
46
95
24
79
88
71
38
15
42
8
37
55
49
73
90
53
84
33
85
12
23
76
68
41
18
3
4
81
22
54
82
14
66
83
57
59
52
86
92
48
58
9
45
63
40
36
91
27
64
89
51
1
26
-1
EOF
